Total weight: 1723.7
Route 1: 0 5 45 2 6 8 46 3 1 4 100 70 0 
Route 2: 0 82 12 11 9 10 0 
Route 3: 0 14 47 16 15 13 17 60 0 
Route 4: 0 23 21 19 49 22 20 24 0 
Route 5: 0 95 85 63 76 18 48 25 0 
Route 6: 0 27 29 28 26 34 32 89 0 
Route 7: 0 31 33 30 50 93 96 0 
Route 8: 0 72 38 36 40 44 43 35 37 0 
Route 9: 0 42 39 41 54 0 
Route 10: 0 69 98 88 53 55 68 0 
Route 11: 0 99 59 75 97 0 
Route 12: 0 78 73 79 7 0 
Route 13: 0 83 64 57 86 0 
Route 14: 0 71 67 94 80 66 91 0 
Route 15: 0 65 52 74 87 58 77 0 
Route 16: 0 92 62 51 84 56 0 
Route 17: 0 61 81 0 
Route 18: 0 90 0 
